p cnf 323 2604
143 151 164 185 284 0
156 193 200 207 0
141 176 190 203 211 0
121 131 136 139 162 0
116 171 183 0
112 114 115 153 0
124 129 138 147 212 214 287 0
77 99 165 169 215 220 289 0
159 178 195 205 216 223 0
134 137 227 0
219 293 0
87 133 226 230 0
191 208 217 232 237 297 0
108 110 202 209 241 299 0
107 120 125 160 0
104 117 181 303 0
101 102 0
90 92 96 0
83 88 229 0
82 157 204 0
81 103 105 0
78 79 80 113 0
127 130 144 0
98 166 170 0
75 76 188 196 0
71 72 73 74 0
68 69 70 89 94 0
66 67 85 222 0
61 62 64 0
57 58 59 142 149 163 0
56 111 173 198 233 0
126 235 0
118 182 236 0
239 240 243 0
245 246 248 250 251 0
254 255 257 259 0
260 261 264 265 266 0
93 97 267 268 269 0
91 270 271 0
84 272 273 0
274 275 276 0
167 186 277 278 279 280 0
194 281 282 283 0
122 184 285 0
132 140 145 148 0
100 152 172 286 0
179 197 0
95 168 288 290 0
158 177 221 224 0
135 228 231 291 0
60 63 65 292 294 0
109 154 175 234 295 0
106 119 161 238 296 0
242 247 298 0
249 252 300 301 0
180 304 0
256 258 306 0
263 308 310 314 0
-136 -183 0
-136 -153 0
-153 -183 0
-245 -311 0
-245 -254 0
-254 -311 0
-272 -277 0
-272 -281 0
-201 -272 0
-199 -272 0
-277 -281 0
-201 -277 0
-199 -277 0
-201 -281 0
-199 -281 0
-199 -201 0
-152 -206 0
-152 -288 0
-152 -221 0
-152 -218 0
-206 -288 0
-206 -221 0
-206 -218 0
-221 -288 0
-218 -288 0
-218 -221 0
-154 -161 0
-154 -298 0
-154 -300 0
-154 -308 0
-161 -298 0
-161 -300 0
-161 -308 0
-298 -300 0
-298 -308 0
-300 -308 0
-152 -272 0
-154 -272 0
-152 -154 0
-136 -245 0
-136 -277 0
-136 -206 0
-136 -161 0
-245 -277 0
-206 -245 0
-161 -245 0
-206 -277 0
-161 -277 0
-161 -206 0
-183 -311 0
-183 -281 0
-183 -288 0
-183 -298 0
-281 -311 0
-288 -311 0
-298 -311 0
-281 -288 0
-281 -298 0
-288 -298 0
-153 -254 0
-153 -201 0
-153 -221 0
-153 -300 0
-201 -254 0
-221 -254 0
-254 -300 0
-201 -221 0
-201 -300 0
-221 -300 0
-199 -218 0
-199 -308 0
-218 -308 0
-143 -176 0
-139 -143 0
-114 -143 0
-138 -143 0
-143 -165 0
-139 -176 0
-114 -176 0
-138 -176 0
-165 -176 0
-114 -139 0
-138 -139 0
-139 -165 0
-114 -138 0
-114 -165 0
-138 -165 0
-227 -313 0
-226 -227 0
-150 -227 0
-217 -227 0
-110 -227 0
-226 -313 0
-150 -313 0
-217 -313 0
-110 -313 0
-150 -226 0
-217 -226 0
-110 -226 0
-150 -217 0
-110 -150 0
-110 -217 0
-181 -315 0
-102 -181 0
-181 -309 0
-181 -316 0
-96 -181 0
-102 -315 0
-309 -315 0
-315 -316 0
-96 -315 0
-102 -309 0
-102 -316 0
-96 -102 0
-309 -316 0
-96 -309 0
-96 -316 0
-260 -317 0
-270 -274 0
-270 -278 0
-270 -318 0
-274 -278 0
-274 -318 0
-278 -318 0
-319 -320 0
-296 -319 0
-249 -319 0
-296 -320 0
-249 -320 0
-249 -296 0
-143 -227 0
-143 -181 0
-143 -270 0
-143 -319 0
-181 -227 0
-227 -270 0
-227 -319 0
-181 -270 0
-181 -319 0
-270 -319 0
-176 -313 0
-176 -315 0
-176 -274 0
-176 -320 0
-313 -315 0
-274 -313 0
-313 -320 0
-274 -315 0
-315 -320 0
-274 -320 0
-139 -226 0
-102 -139 0
-139 -278 0
-139 -296 0
-102 -226 0
-226 -278 0
-226 -296 0
-102 -278 0
-102 -296 0
-278 -296 0
-114 -150 0
-114 -309 0
-114 -318 0
-114 -249 0
-150 -309 0
-150 -318 0
-150 -249 0
-309 -318 0
-249 -309 0
-249 -318 0
-138 -217 0
-138 -316 0
-138 -317 0
-217 -316 0
-217 -317 0
-316 -317 0
-110 -165 0
-96 -165 0
-165 -260 0
-96 -110 0
-110 -260 0
-96 -260 0
-131 -171 0
-129 -131 0
-131 -169 0
-131 -195 0
-129 -171 0
-169 -171 0
-171 -195 0
-129 -169 0
-129 -195 0
-169 -195 0
-87 -174 0
-87 -237 0
-87 -241 0
-87 -125 0
-174 -237 0
-174 -241 0
-125 -174 0
-237 -241 0
-125 -237 0
-125 -241 0
-67 -94 0
-59 -94 0
-94 -321 0
-94 -198 0
-59 -67 0
-67 -321 0
-67 -198 0
-59 -321 0
-59 -198 0
-198 -321 0
-246 -302 0
-246 -307 0
-246 -261 0
-246 -267 0
-302 -307 0
-261 -302 0
-267 -302 0
-261 -307 0
-267 -307 0
-261 -267 0
-140 -228 0
-65 -140 0
-140 -312 0
-65 -228 0
-228 -312 0
-65 -312 0
-180 -225 0
-225 -256 0
-225 -314 0
-180 -256 0
-180 -314 0
-256 -314 0
-140 -225 0
-87 -131 0
-94 -131 0
-131 -246 0
-87 -94 0
-87 -246 0
-94 -246 0
-171 -174 0
-67 -171 0
-171 -302 0
-67 -174 0
-174 -302 0
-67 -302 0
-129 -237 0
-59 -129 0
-129 -307 0
-129 -228 0
-129 -180 0
-59 -237 0
-237 -307 0
-228 -237 0
-180 -237 0
-59 -307 0
-59 -228 0
-59 -180 0
-228 -307 0
-180 -307 0
-180 -228 0
-169 -241 0
-169 -321 0
-169 -261 0
-65 -169 0
-169 -256 0
-241 -321 0
-241 -261 0
-65 -241 0
-241 -256 0
-261 -321 0
-65 -321 0
-256 -321 0
-65 -261 0
-256 -261 0
-65 -256 0
-125 -195 0
-195 -198 0
-195 -267 0
-195 -312 0
-195 -314 0
-125 -198 0
-125 -267 0
-125 -312 0
-125 -314 0
-198 -267 0
-198 -312 0
-198 -314 0
-267 -312 0
-267 -314 0
-312 -314 0
-151 -207 0
-151 -203 0
-99 -151 0
-151 -159 0
-203 -207 0
-99 -207 0
-159 -207 0
-99 -203 0
-159 -203 0
-99 -159 0
-117 -244 0
-117 -253 0
-92 -117 0
-117 -229 0
-244 -253 0
-92 -244 0
-229 -244 0
-92 -253 0
-229 -253 0
-92 -229 0
-322 -323 0
-187 -322 0
-157 -322 0
-55 -322 0
-187 -323 0
-157 -323 0
-55 -323 0
-157 -187 0
-55 -187 0
-55 -157 0
-54 -76 0
-74 -76 0
-70 -76 0
-76 -222 0
-54 -74 0
-54 -70 0
-54 -222 0
-70 -74 0
-74 -222 0
-70 -222 0
-84 -91 0
-91 -275 0
-91 -279 0
-91 -282 0
-53 -91 0
-52 -91 0
-84 -275 0
-84 -279 0
-84 -282 0
-53 -84 0
-52 -84 0
-275 -279 0
-275 -282 0
-53 -275 0
-52 -275 0
-279 -282 0
-53 -279 0
-52 -279 0
-53 -282 0
-52 -282 0
-52 -53 0
-132 -172 0
-132 -197 0
-128 -132 0
-132 -168 0
-63 -132 0
-51 -132 0
-172 -197 0
-128 -172 0
-168 -172 0
-63 -172 0
-51 -172 0
-128 -197 0
-168 -197 0
-63 -197 0
-51 -197 0
-128 -168 0
-63 -128 0
-51 -128 0
-63 -168 0
-51 -168 0
-51 -63 0
-86 -175 0
-50 -86 0
-86 -238 0
-86 -242 0
-86 -258 0
-86 -310 0
-50 -175 0
-175 -238 0
-175 -242 0
-175 -258 0
-175 -310 0
-50 -238 0
-50 -242 0
-50 -258 0
-50 -310 0
-238 -242 0
-238 -258 0
-238 -310 0
-242 -258 0
-242 -310 0
-258 -310 0
-117 -151 0
-151 -322 0
-76 -151 0
-91 -151 0
-132 -151 0
-86 -151 0
-117 -322 0
-76 -117 0
-91 -117 0
-117 -132 0
-86 -117 0
-76 -322 0
-91 -322 0
-132 -322 0
-86 -322 0
-76 -91 0
-76 -132 0
-76 -86 0
-91 -132 0
-86 -91 0
-86 -132 0
-207 -244 0
-207 -323 0
-54 -207 0
-84 -207 0
-172 -207 0
-175 -207 0
-244 -323 0
-54 -244 0
-84 -244 0
-172 -244 0
-175 -244 0
-54 -323 0
-84 -323 0
-172 -323 0
-175 -323 0
-54 -84 0
-54 -172 0
-54 -175 0
-84 -172 0
-84 -175 0
-172 -175 0
-203 -253 0
-187 -203 0
-74 -203 0
-203 -275 0
-197 -203 0
-50 -203 0
-187 -253 0
-74 -253 0
-253 -275 0
-197 -253 0
-50 -253 0
-74 -187 0
-187 -275 0
-187 -197 0
-50 -187 0
-74 -275 0
-74 -197 0
-50 -74 0
-197 -275 0
-50 -275 0
-50 -197 0
-70 -157 0
-157 -279 0
-128 -157 0
-157 -238 0
-70 -279 0
-70 -128 0
-70 -238 0
-128 -279 0
-238 -279 0
-128 -238 0
-55 -222 0
-55 -282 0
-55 -168 0
-55 -242 0
-222 -282 0
-168 -222 0
-222 -242 0
-168 -282 0
-242 -282 0
-168 -242 0
-92 -99 0
-53 -99 0
-63 -99 0
-99 -258 0
-53 -92 0
-63 -92 0
-92 -258 0
-53 -63 0
-53 -258 0
-63 -258 0
-159 -229 0
-52 -159 0
-51 -159 0
-159 -310 0
-52 -229 0
-51 -229 0
-229 -310 0
-51 -52 0
-52 -310 0
-51 -310 0
-115 -121 0
-121 -124 0
-121 -289 0
-115 -124 0
-115 -289 0
-124 -289 0
-49 -230 0
-208 -230 0
-202 -230 0
-49 -208 0
-49 -202 0
-202 -208 0
-47 -48 0
-48 -80 0
-48 -127 0
-47 -80 0
-47 -127 0
-80 -127 0
-46 -188 0
-142 -188 0
-45 -188 0
-46 -142 0
-45 -46 0
-45 -142 0
-100 -145 0
-44 -145 0
-145 -158 0
-44 -100 0
-100 -158 0
-44 -158 0
-43 -234 0
-43 -119 0
-43 -252 0
-119 -234 0
-234 -252 0
-119 -252 0
-48 -188 0
-48 -145 0
-43 -48 0
-145 -188 0
-43 -188 0
-43 -145 0
-46 -47 0
-47 -100 0
-47 -234 0
-46 -100 0
-46 -234 0
-100 -234 0
-121 -230 0
-44 -121 0
-119 -121 0
-44 -230 0
-119 -230 0
-44 -119 0
-49 -115 0
-115 -158 0
-115 -252 0
-49 -158 0
-49 -252 0
-158 -252 0
-124 -208 0
-80 -124 0
-124 -142 0
-80 -208 0
-142 -208 0
-80 -142 0
-202 -289 0
-127 -289 0
-45 -289 0
-127 -202 0
-45 -202 0
-45 -127 0
-164 -212 0
-164 -215 0
-164 -216 0
-212 -215 0
-212 -216 0
-215 -216 0
-137 -232 0
-108 -137 0
-120 -137 0
-108 -232 0
-120 -232 0
-108 -120 0
-66 -69 0
-58 -69 0
-42 -69 0
-56 -69 0
-58 -66 0
-42 -66 0
-56 -66 0
-42 -58 0
-56 -58 0
-42 -56 0
-41 -248 0
-40 -248 0
-248 -264 0
-248 -268 0
-40 -41 0
-41 -264 0
-41 -268 0
-40 -264 0
-40 -268 0
-264 -268 0
-280 -283 0
-122 -280 0
-39 -280 0
-38 -280 0
-122 -283 0
-39 -283 0
-38 -283 0
-39 -122 0
-38 -122 0
-38 -39 0
-123 -290 0
-123 -231 0
-123 -292 0
-37 -123 0
-231 -290 0
-290 -292 0
-37 -290 0
-231 -292 0
-37 -231 0
-37 -292 0
-137 -164 0
-69 -248 0
-69 -280 0
-69 -123 0
-248 -280 0
-123 -248 0
-123 -280 0
-41 -66 0
-66 -283 0
-66 -290 0
-41 -283 0
-41 -290 0
-283 -290 0
-212 -232 0
-58 -212 0
-40 -212 0
-122 -212 0
-212 -231 0
-58 -232 0
-40 -232 0
-122 -232 0
-231 -232 0
-40 -58 0
-58 -122 0
-58 -231 0
-40 -122 0
-40 -231 0
-122 -231 0
-108 -215 0
-42 -215 0
-215 -264 0
-39 -215 0
-215 -292 0
-42 -108 0
-108 -264 0
-39 -108 0
-108 -292 0
-42 -264 0
-39 -42 0
-42 -292 0
-39 -264 0
-264 -292 0
-39 -292 0
-120 -216 0
-56 -216 0
-216 -268 0
-38 -216 0
-37 -216 0
-56 -120 0
-120 -268 0
-38 -120 0
-37 -120 0
-56 -268 0
-38 -56 0
-37 -56 0
-38 -268 0
-37 -268 0
-37 -38 0
-193 -284 0
-211 -284 0
-147 -284 0
-178 -284 0
-193 -211 0
-147 -193 0
-178 -193 0
-147 -211 0
-178 -211 0
-147 -178 0
-303 -305 0
-262 -303 0
-36 -303 0
-88 -303 0
-262 -305 0
-36 -305 0
-88 -305 0
-36 -262 0
-88 -262 0
-36 -88 0
-34 -35 0
-33 -35 0
-35 -81 0
-35 -113 0
-35 -166 0
-33 -34 0
-34 -81 0
-34 -113 0
-34 -166 0
-33 -81 0
-33 -113 0
-33 -166 0
-81 -113 0
-81 -166 0
-113 -166 0
-32 -75 0
-73 -75 0
-64 -75 0
-75 -149 0
-75 -111 0
-32 -73 0
-32 -64 0
-32 -149 0
-32 -111 0
-64 -73 0
-73 -149 0
-73 -111 0
-64 -149 0
-64 -111 0
-111 -149 0
-182 -235 0
-235 -239 0
-235 -255 0
-31 -235 0
-97 -235 0
-182 -239 0
-182 -255 0
-31 -182 0
-97 -182 0
-239 -255 0
-31 -239 0
-97 -239 0
-31 -255 0
-97 -255 0
-31 -97 0
-30 -109 0
-29 -30 0
-29 -109 0
-284 -303 0
-35 -284 0
-75 -284 0
-235 -284 0
-30 -284 0
-35 -303 0
-75 -303 0
-235 -303 0
-30 -303 0
-35 -75 0
-35 -235 0
-30 -35 0
-75 -235 0
-30 -75 0
-30 -235 0
-193 -305 0
-34 -193 0
-32 -193 0
-182 -193 0
-109 -193 0
-34 -305 0
-32 -305 0
-182 -305 0
-109 -305 0
-32 -34 0
-34 -182 0
-34 -109 0
-32 -182 0
-32 -109 0
-109 -182 0
-211 -262 0
-33 -211 0
-73 -211 0
-211 -239 0
-29 -211 0
-33 -262 0
-73 -262 0
-239 -262 0
-29 -262 0
-33 -73 0
-33 -239 0
-29 -33 0
-73 -239 0
-29 -73 0
-29 -239 0
-64 -81 0
-81 -255 0
-64 -255 0
-36 -147 0
-113 -147 0
-147 -149 0
-31 -147 0
-36 -113 0
-36 -149 0
-31 -36 0
-113 -149 0
-31 -113 0
-31 -149 0
-88 -178 0
-166 -178 0
-111 -178 0
-97 -178 0
-88 -166 0
-88 -111 0
-88 -97 0
-111 -166 0
-97 -166 0
-97 -111 0
-156 -185 0
-185 -190 0
-162 -185 0
-116 -185 0
-112 -185 0
-185 -214 0
-77 -185 0
-185 -223 0
-156 -190 0
-156 -162 0
-116 -156 0
-112 -156 0
-156 -214 0
-77 -156 0
-156 -223 0
-162 -190 0
-116 -190 0
-112 -190 0
-190 -214 0
-77 -190 0
-190 -223 0
-116 -162 0
-112 -162 0
-162 -214 0
-77 -162 0
-162 -223 0
-112 -116 0
-116 -214 0
-77 -116 0
-116 -223 0
-112 -214 0
-77 -112 0
-112 -223 0
-77 -214 0
-214 -223 0
-77 -223 0
-134 -293 0
-28 -134 0
-133 -134 0
-26 -134 0
-25 -134 0
-134 -191 0
-134 -209 0
-107 -134 0
-28 -293 0
-133 -293 0
-26 -293 0
-25 -293 0
-191 -293 0
-209 -293 0
-107 -293 0
-28 -133 0
-26 -28 0
-25 -28 0
-28 -191 0
-28 -209 0
-28 -107 0
-26 -133 0
-25 -133 0
-133 -191 0
-133 -209 0
-107 -133 0
-25 -26 0
-26 -191 0
-26 -209 0
-26 -107 0
-25 -191 0
-25 -209 0
-25 -107 0
-191 -209 0
-107 -191 0
-107 -209 0
-24 -104 0
-23 -104 0
-101 -104 0
-22 -104 0
-21 -104 0
-20 -104 0
-90 -104 0
-83 -104 0
-23 -24 0
-24 -101 0
-22 -24 0
-21 -24 0
-20 -24 0
-24 -90 0
-24 -83 0
-23 -101 0
-22 -23 0
-21 -23 0
-20 -23 0
-23 -90 0
-23 -83 0
-22 -101 0
-21 -101 0
-20 -101 0
-90 -101 0
-83 -101 0
-21 -22 0
-20 -22 0
-22 -90 0
-22 -83 0
-20 -21 0
-21 -90 0
-21 -83 0
-20 -90 0
-20 -83 0
-83 -90 0
-18 -19 0
-17 -19 0
-19 -82 0
-16 -19 0
-19 -105 0
-19 -79 0
-19 -130 0
-19 -170 0
-17 -18 0
-18 -82 0
-16 -18 0
-18 -105 0
-18 -79 0
-18 -130 0
-18 -170 0
-17 -82 0
-16 -17 0
-17 -105 0
-17 -79 0
-17 -130 0
-17 -170 0
-16 -82 0
-82 -105 0
-79 -82 0
-82 -130 0
-82 -170 0
-16 -105 0
-16 -79 0
-16 -130 0
-16 -170 0
-79 -105 0
-105 -130 0
-105 -170 0
-79 -130 0
-79 -170 0
-130 -170 0
-15 -196 0
-72 -196 0
-68 -196 0
-85 -196 0
-62 -196 0
-57 -196 0
-14 -196 0
-173 -196 0
-15 -72 0
-15 -68 0
-15 -85 0
-15 -62 0
-15 -57 0
-14 -15 0
-15 -173 0
-68 -72 0
-72 -85 0
-62 -72 0
-57 -72 0
-14 -72 0
-72 -173 0
-68 -85 0
-62 -68 0
-57 -68 0
-14 -68 0
-68 -173 0
-62 -85 0
-57 -85 0
-14 -85 0
-85 -173 0
-57 -62 0
-14 -62 0
-62 -173 0
-14 -57 0
-57 -173 0
-14 -173 0
-126 -236 0
-126 -240 0
-126 -250 0
-13 -126 0
-126 -257 0
-12 -126 0
-126 -265 0
-126 -269 0
-236 -240 0
-236 -250 0
-13 -236 0
-236 -257 0
-12 -236 0
-236 -265 0
-236 -269 0
-240 -250 0
-13 -240 0
-240 -257 0
-12 -240 0
-240 -265 0
-240 -269 0
-13 -250 0
-250 -257 0
-12 -250 0
-250 -265 0
-250 -269 0
-13 -257 0
-12 -13 0
-13 -265 0
-13 -269 0
-12 -257 0
-257 -265 0
-257 -269 0
-12 -265 0
-12 -269 0
-265 -269 0
-271 -273 0
-271 -276 0
-167 -271 0
-194 -271 0
-11 -271 0
-271 -285 0
-192 -271 0
-210 -271 0
-273 -276 0
-167 -273 0
-194 -273 0
-11 -273 0
-273 -285 0
-192 -273 0
-210 -273 0
-167 -276 0
-194 -276 0
-11 -276 0
-276 -285 0
-192 -276 0
-210 -276 0
-167 -194 0
-11 -167 0
-167 -285 0
-167 -192 0
-167 -210 0
-11 -194 0
-194 -285 0
-192 -194 0
-194 -210 0
-11 -285 0
-11 -192 0
-11 -210 0
-192 -285 0
-210 -285 0
-192 -210 0
-148 -286 0
-148 -179 0
-146 -148 0
-95 -148 0
-148 -177 0
-148 -291 0
-60 -148 0
-10 -148 0
-179 -286 0
-146 -286 0
-95 -286 0
-177 -286 0
-286 -291 0
-60 -286 0
-10 -286 0
-146 -179 0
-95 -179 0
-177 -179 0
-179 -291 0
-60 -179 0
-10 -179 0
-95 -146 0
-146 -177 0
-146 -291 0
-60 -146 0
-10 -146 0
-95 -177 0
-95 -291 0
-60 -95 0
-10 -95 0
-177 -291 0
-60 -177 0
-10 -177 0
-60 -291 0
-10 -291 0
-10 -60 0
-9 -295 0
-8 -9 0
-9 -106 0
-9 -247 0
-9 -301 0
-9 -304 0
-9 -306 0
-9 -263 0
-8 -295 0
-106 -295 0
-247 -295 0
-295 -301 0
-295 -304 0
-295 -306 0
-263 -295 0
-8 -106 0
-8 -247 0
-8 -301 0
-8 -304 0
-8 -306 0
-8 -263 0
-106 -247 0
-106 -301 0
-106 -304 0
-106 -306 0
-106 -263 0
-247 -301 0
-247 -304 0
-247 -306 0
-247 -263 0
-301 -304 0
-301 -306 0
-263 -301 0
-304 -306 0
-263 -304 0
-263 -306 0
-134 -185 0
-104 -185 0
-19 -185 0
-185 -196 0
-126 -185 0
-185 -271 0
-148 -185 0
-9 -185 0
-104 -134 0
-19 -134 0
-134 -196 0
-126 -134 0
-134 -271 0
-134 -148 0
-9 -134 0
-19 -104 0
-104 -196 0
-104 -126 0
-104 -271 0
-104 -148 0
-9 -104 0
-19 -196 0
-19 -126 0
-19 -271 0
-19 -148 0
-9 -19 0
-126 -196 0
-196 -271 0
-148 -196 0
-9 -196 0
-126 -271 0
-126 -148 0
-9 -126 0
-148 -271 0
-9 -271 0
-9 -148 0
-156 -293 0
-24 -156 0
-18 -156 0
-15 -156 0
-156 -236 0
-156 -273 0
-156 -286 0
-156 -295 0
-24 -293 0
-18 -293 0
-15 -293 0
-236 -293 0
-273 -293 0
-286 -293 0
-293 -295 0
-18 -24 0
-15 -24 0
-24 -236 0
-24 -273 0
-24 -286 0
-24 -295 0
-15 -18 0
-18 -236 0
-18 -273 0
-18 -286 0
-18 -295 0
-15 -236 0
-15 -273 0
-15 -286 0
-15 -295 0
-236 -273 0
-236 -286 0
-236 -295 0
-273 -286 0
-273 -295 0
-286 -295 0
-28 -190 0
-23 -190 0
-17 -190 0
-72 -190 0
-190 -240 0
-190 -276 0
-179 -190 0
-8 -190 0
-23 -28 0
-17 -28 0
-28 -72 0
-28 -240 0
-28 -276 0
-28 -179 0
-8 -28 0
-17 -23 0
-23 -72 0
-23 -240 0
-23 -276 0
-23 -179 0
-8 -23 0
-17 -72 0
-17 -240 0
-17 -276 0
-17 -179 0
-8 -17 0
-72 -240 0
-72 -276 0
-72 -179 0
-8 -72 0
-240 -276 0
-179 -240 0
-8 -240 0
-179 -276 0
-8 -276 0
-8 -179 0
-133 -162 0
-101 -162 0
-82 -162 0
-68 -162 0
-162 -250 0
-162 -167 0
-146 -162 0
-106 -162 0
-101 -133 0
-82 -133 0
-68 -133 0
-133 -250 0
-133 -167 0
-133 -146 0
-106 -133 0
-82 -101 0
-68 -101 0
-101 -250 0
-101 -167 0
-101 -146 0
-101 -106 0
-68 -82 0
-82 -250 0
-82 -167 0
-82 -146 0
-82 -106 0
-68 -250 0
-68 -167 0
-68 -146 0
-68 -106 0
-167 -250 0
-146 -250 0
-106 -250 0
-146 -167 0
-106 -167 0
-106 -146 0
-26 -116 0
-22 -116 0
-16 -116 0
-85 -116 0
-13 -116 0
-116 -194 0
-95 -116 0
-116 -247 0
-22 -26 0
-16 -26 0
-26 -85 0
-13 -26 0
-26 -194 0
-26 -95 0
-26 -247 0
-16 -22 0
-22 -85 0
-13 -22 0
-22 -194 0
-22 -95 0
-22 -247 0
-16 -85 0
-13 -16 0
-16 -194 0
-16 -95 0
-16 -247 0
-13 -85 0
-85 -194 0
-85 -95 0
-85 -247 0
-13 -194 0
-13 -95 0
-13 -247 0
-95 -194 0
-194 -247 0
-95 -247 0
-25 -112 0
-21 -112 0
-105 -112 0
-62 -112 0
-112 -257 0
-11 -112 0
-112 -177 0
-112 -301 0
-21 -25 0
-25 -105 0
-25 -62 0
-25 -257 0
-11 -25 0
-25 -177 0
-25 -301 0
-21 -105 0
-21 -62 0
-21 -257 0
-11 -21 0
-21 -177 0
-21 -301 0
-62 -105 0
-105 -257 0
-11 -105 0
-105 -177 0
-105 -301 0
-62 -257 0
-11 -62 0
-62 -177 0
-62 -301 0
-11 -257 0
-177 -257 0
-257 -301 0
-11 -177 0
-11 -301 0
-177 -301 0
-191 -214 0
-20 -214 0
-79 -214 0
-57 -214 0
-12 -214 0
-214 -285 0
-214 -291 0
-214 -304 0
-20 -191 0
-79 -191 0
-57 -191 0
-12 -191 0
-191 -285 0
-191 -291 0
-191 -304 0
-20 -79 0
-20 -57 0
-12 -20 0
-20 -285 0
-20 -291 0
-20 -304 0
-57 -79 0
-12 -79 0
-79 -285 0
-79 -291 0
-79 -304 0
-12 -57 0
-57 -285 0
-57 -291 0
-57 -304 0
-12 -285 0
-12 -291 0
-12 -304 0
-285 -291 0
-285 -304 0
-291 -304 0
-77 -209 0
-77 -90 0
-77 -130 0
-14 -77 0
-77 -265 0
-77 -192 0
-60 -77 0
-77 -306 0
-90 -209 0
-130 -209 0
-14 -209 0
-209 -265 0
-192 -209 0
-60 -209 0
-209 -306 0
-90 -130 0
-14 -90 0
-90 -265 0
-90 -192 0
-60 -90 0
-90 -306 0
-14 -130 0
-130 -265 0
-130 -192 0
-60 -130 0
-130 -306 0
-14 -265 0
-14 -192 0
-14 -60 0
-14 -306 0
-192 -265 0
-60 -265 0
-265 -306 0
-60 -192 0
-192 -306 0
-60 -306 0
-107 -223 0
-83 -223 0
-170 -223 0
-173 -223 0
-223 -269 0
-210 -223 0
-10 -223 0
-223 -263 0
-83 -107 0
-107 -170 0
-107 -173 0
-107 -269 0
-107 -210 0
-10 -107 0
-107 -263 0
-83 -170 0
-83 -173 0
-83 -269 0
-83 -210 0
-10 -83 0
-83 -263 0
-170 -173 0
-170 -269 0
-170 -210 0
-10 -170 0
-170 -263 0
-173 -269 0
-173 -210 0
-10 -173 0
-173 -263 0
-210 -269 0
-10 -269 0
-263 -269 0
-10 -210 0
-210 -263 0
-10 -263 0
-141 -200 0
-200 -287 0
-200 -220 0
-200 -205 0
-141 -287 0
-141 -220 0
-141 -205 0
-220 -287 0
-205 -287 0
-205 -220 0
-7 -219 0
-219 -297 0
-219 -299 0
-160 -219 0
-7 -297 0
-7 -299 0
-7 -160 0
-297 -299 0
-160 -297 0
-160 -299 0
-5 -6 0
-6 -204 0
-6 -103 0
-6 -78 0
-6 -144 0
-6 -98 0
-5 -204 0
-5 -103 0
-5 -78 0
-5 -144 0
-5 -98 0
-103 -204 0
-78 -204 0
-144 -204 0
-98 -204 0
-78 -103 0
-103 -144 0
-98 -103 0
-78 -144 0
-78 -98 0
-98 -144 0
-4 -71 0
-4 -89 0
-4 -61 0
-4 -163 0
-3 -4 0
-4 -233 0
-71 -89 0
-61 -71 0
-71 -163 0
-3 -71 0
-71 -233 0
-61 -89 0
-89 -163 0
-3 -89 0
-89 -233 0
-61 -163 0
-3 -61 0
-61 -233 0
-3 -163 0
-163 -233 0
-3 -233 0
-118 -243 0
-118 -251 0
-118 -259 0
-2 -118 0
-118 -266 0
-93 -118 0
-243 -251 0
-243 -259 0
-2 -243 0
-243 -266 0
-93 -243 0
-251 -259 0
-2 -251 0
-251 -266 0
-93 -251 0
-2 -259 0
-259 -266 0
-93 -259 0
-2 -266 0
-2 -93 0
-93 -266 0
-1 -186 0
-184 -186 0
-155 -186 0
-186 -189 0
-1 -184 0
-1 -155 0
-1 -189 0
-155 -184 0
-184 -189 0
-155 -189 0
-213 -224 0
-135 -213 0
-213 -294 0
-27 -213 0
-135 -224 0
-224 -294 0
-27 -224 0
-135 -294 0
-27 -135 0
-27 -294 0
-200 -219 0
-6 -200 0
-4 -200 0
-118 -200 0
-6 -219 0
-4 -219 0
-118 -219 0
-4 -6 0
-6 -118 0
-4 -118 0
-7 -141 0
-5 -141 0
-71 -141 0
-141 -243 0
-5 -7 0
-7 -71 0
-7 -243 0
-5 -71 0
-5 -243 0
-71 -243 0
-89 -204 0
-204 -251 0
-186 -204 0
-204 -213 0
-89 -251 0
-89 -186 0
-89 -213 0
-186 -251 0
-213 -251 0
-186 -213 0
-61 -103 0
-103 -259 0
-1 -103 0
-103 -224 0
-61 -259 0
-1 -61 0
-61 -224 0
-1 -259 0
-224 -259 0
-1 -224 0
-287 -297 0
-78 -287 0
-163 -287 0
-2 -287 0
-184 -287 0
-135 -287 0
-78 -297 0
-163 -297 0
-2 -297 0
-184 -297 0
-135 -297 0
-78 -163 0
-2 -78 0
-78 -184 0
-78 -135 0
-2 -163 0
-163 -184 0
-135 -163 0
-2 -184 0
-2 -135 0
-135 -184 0
-220 -299 0
-144 -220 0
-3 -220 0
-220 -266 0
-155 -220 0
-220 -294 0
-144 -299 0
-3 -299 0
-266 -299 0
-155 -299 0
-294 -299 0
-3 -144 0
-144 -266 0
-144 -155 0
-144 -294 0
-3 -266 0
-3 -155 0
-3 -294 0
-155 -266 0
-266 -294 0
-155 -294 0
-160 -205 0
-98 -205 0
-205 -233 0
-93 -205 0
-189 -205 0
-27 -205 0
-98 -160 0
-160 -233 0
-93 -160 0
-160 -189 0
-27 -160 0
-98 -233 0
-93 -98 0
-98 -189 0
-27 -98 0
-93 -233 0
-189 -233 0
-27 -233 0
-93 -189 0
-27 -93 0
-27 -189 0
-143 -176 0
-143 -227 0
-143 -313 0
-143 -181 0
-143 -315 0
-176 -227 0
-176 -313 0
-176 -181 0
-176 -315 0
-227 -313 0
-181 -227 0
-227 -315 0
-181 -313 0
-313 -315 0
-181 -315 0
-151 -207 0
-151 -203 0
-117 -151 0
-151 -244 0
-151 -253 0
-203 -207 0
-117 -207 0
-207 -244 0
-207 -253 0
-117 -203 0
-203 -244 0
-203 -253 0
-117 -244 0
-117 -253 0
-244 -253 0
-137 -164 0
-193 -284 0
-211 -284 0
-284 -303 0
-284 -305 0
-262 -284 0
-193 -211 0
-193 -303 0
-193 -305 0
-193 -262 0
-211 -303 0
-211 -305 0
-211 -262 0
-303 -305 0
-262 -303 0
-262 -305 0
-156 -185 0
-185 -190 0
-134 -185 0
-185 -293 0
-28 -185 0
-104 -185 0
-24 -185 0
-23 -185 0
-156 -190 0
-134 -156 0
-156 -293 0
-28 -156 0
-104 -156 0
-24 -156 0
-23 -156 0
-134 -190 0
-190 -293 0
-28 -190 0
-104 -190 0
-24 -190 0
-23 -190 0
-134 -293 0
-28 -134 0
-104 -134 0
-24 -134 0
-23 -134 0
-28 -293 0
-104 -293 0
-24 -293 0
-23 -293 0
-28 -104 0
-24 -28 0
-23 -28 0
-24 -104 0
-23 -104 0
-23 -24 0
-141 -200 0
-200 -219 0
-7 -200 0
-141 -219 0
-7 -141 0
-7 -219 0
-136 -183 0
-136 -153 0
-153 -183 0
-114 -139 0
-139 -226 0
-139 -150 0
-102 -139 0
-139 -309 0
-114 -226 0
-114 -150 0
-102 -114 0
-114 -309 0
-150 -226 0
-102 -226 0
-226 -309 0
-102 -150 0
-150 -309 0
-102 -309 0
-131 -171 0
-87 -131 0
-131 -174 0
-87 -171 0
-171 -174 0
-87 -174 0
-115 -121 0
-121 -230 0
-49 -121 0
-115 -230 0
-49 -115 0
-49 -230 0
-116 -162 0
-112 -162 0
-133 -162 0
-26 -162 0
-25 -162 0
-101 -162 0
-22 -162 0
-21 -162 0
-112 -116 0
-116 -133 0
-26 -116 0
-25 -116 0
-101 -116 0
-22 -116 0
-21 -116 0
-112 -133 0
-26 -112 0
-25 -112 0
-101 -112 0
-22 -112 0
-21 -112 0
-26 -133 0
-25 -133 0
-101 -133 0
-22 -133 0
-21 -133 0
-25 -26 0
-26 -101 0
-22 -26 0
-21 -26 0
-25 -101 0
-22 -25 0
-21 -25 0
-22 -101 0
-21 -101 0
-21 -22 0
-138 -165 0
-138 -217 0
-110 -138 0
-138 -316 0
-96 -138 0
-165 -217 0
-110 -165 0
-165 -316 0
-96 -165 0
-110 -217 0
-217 -316 0
-96 -217 0
-110 -316 0
-96 -110 0
-96 -316 0
-129 -169 0
-129 -195 0
-129 -237 0
-129 -241 0
-125 -129 0
-169 -195 0
-169 -237 0
-169 -241 0
-125 -169 0
-195 -237 0
-195 -241 0
-125 -195 0
-237 -241 0
-125 -237 0
-125 -241 0
-99 -159 0
-92 -99 0
-99 -229 0
-92 -159 0
-159 -229 0
-92 -229 0
-124 -289 0
-124 -208 0
-124 -202 0
-208 -289 0
-202 -289 0
-202 -208 0
-212 -215 0
-212 -216 0
-212 -232 0
-108 -212 0
-120 -212 0
-215 -216 0
-215 -232 0
-108 -215 0
-120 -215 0
-216 -232 0
-108 -216 0
-120 -216 0
-108 -232 0
-120 -232 0
-108 -120 0
-147 -178 0
-36 -147 0
-88 -147 0
-36 -178 0
-88 -178 0
-36 -88 0
-77 -214 0
-214 -223 0
-191 -214 0
-209 -214 0
-107 -214 0
-20 -214 0
-90 -214 0
-83 -214 0
-77 -223 0
-77 -191 0
-77 -209 0
-77 -107 0
-20 -77 0
-77 -90 0
-77 -83 0
-191 -223 0
-209 -223 0
-107 -223 0
-20 -223 0
-90 -223 0
-83 -223 0
-191 -209 0
-107 -191 0
-20 -191 0
-90 -191 0
-83 -191 0
-107 -209 0
-20 -209 0
-90 -209 0
-83 -209 0
-20 -107 0
-90 -107 0
-83 -107 0
-20 -90 0
-20 -83 0
-83 -90 0
-220 -287 0
-205 -287 0
-287 -297 0
-287 -299 0
-160 -287 0
-205 -220 0
-220 -297 0
-220 -299 0
-160 -220 0
-205 -297 0
-205 -299 0
-160 -205 0
-297 -299 0
-160 -297 0
-160 -299 0
-322 -323 0
-187 -322 0
-76 -322 0
-54 -322 0
-74 -322 0
-187 -323 0
-76 -323 0
-54 -323 0
-74 -323 0
-76 -187 0
-54 -187 0
-74 -187 0
-54 -76 0
-74 -76 0
-54 -74 0
-47 -48 0
-48 -188 0
-46 -48 0
-47 -188 0
-46 -47 0
-46 -188 0
-34 -35 0
-33 -35 0
-35 -75 0
-32 -35 0
-35 -73 0
-35 -235 0
-35 -182 0
-35 -239 0
-33 -34 0
-34 -75 0
-32 -34 0
-34 -73 0
-34 -235 0
-34 -182 0
-34 -239 0
-33 -75 0
-32 -33 0
-33 -73 0
-33 -235 0
-33 -182 0
-33 -239 0
-32 -75 0
-73 -75 0
-75 -235 0
-75 -182 0
-75 -239 0
-32 -73 0
-32 -235 0
-32 -182 0
-32 -239 0
-73 -235 0
-73 -182 0
-73 -239 0
-182 -235 0
-235 -239 0
-182 -239 0
-18 -19 0
-17 -19 0
-19 -196 0
-15 -19 0
-19 -72 0
-19 -126 0
-19 -236 0
-19 -240 0
-17 -18 0
-18 -196 0
-15 -18 0
-18 -72 0
-18 -126 0
-18 -236 0
-18 -240 0
-17 -196 0
-15 -17 0
-17 -72 0
-17 -126 0
-17 -236 0
-17 -240 0
-15 -196 0
-72 -196 0
-126 -196 0
-196 -236 0
-196 -240 0
-15 -72 0
-15 -126 0
-15 -236 0
-15 -240 0
-72 -126 0
-72 -236 0
-72 -240 0
-126 -236 0
-126 -240 0
-236 -240 0
-5 -6 0
-4 -6 0
-6 -71 0
-6 -118 0
-6 -243 0
-4 -5 0
-5 -71 0
-5 -118 0
-5 -243 0
-4 -71 0
-4 -118 0
-4 -243 0
-71 -118 0
-71 -243 0
-118 -243 0
-245 -311 0
-245 -254 0
-254 -311 0
-67 -94 0
-94 -246 0
-94 -302 0
-67 -246 0
-67 -302 0
-246 -302 0
-55 -157 0
-70 -157 0
-157 -222 0
-55 -70 0
-55 -222 0
-70 -222 0
-66 -69 0
-69 -248 0
-41 -69 0
-66 -248 0
-41 -66 0
-41 -248 0
-64 -81 0
-81 -255 0
-64 -255 0
-16 -82 0
-82 -105 0
-68 -82 0
-82 -85 0
-62 -82 0
-82 -250 0
-13 -82 0
-82 -257 0
-16 -105 0
-16 -68 0
-16 -85 0
-16 -62 0
-16 -250 0
-13 -16 0
-16 -257 0
-68 -105 0
-85 -105 0
-62 -105 0
-105 -250 0
-13 -105 0
-105 -257 0
-68 -85 0
-62 -68 0
-68 -250 0
-13 -68 0
-68 -257 0
-62 -85 0
-85 -250 0
-13 -85 0
-85 -257 0
-62 -250 0
-13 -62 0
-62 -257 0
-13 -250 0
-250 -257 0
-13 -257 0
-103 -204 0
-89 -204 0
-61 -204 0
-204 -251 0
-204 -259 0
-89 -103 0
-61 -103 0
-103 -251 0
-103 -259 0
-61 -89 0
-89 -251 0
-89 -259 0
-61 -251 0
-61 -259 0
-251 -259 0
-260 -317 0
-59 -321 0
-59 -198 0
-59 -307 0
-59 -261 0
-59 -267 0
-198 -321 0
-307 -321 0
-261 -321 0
-267 -321 0
-198 -307 0
-198 -261 0
-198 -267 0
-261 -307 0
-267 -307 0
-261 -267 0
-80 -127 0
-80 -142 0
-45 -80 0
-127 -142 0
-45 -127 0
-45 -142 0
-42 -58 0
-56 -58 0
-40 -58 0
-58 -264 0
-58 -268 0
-42 -56 0
-40 -42 0
-42 -264 0
-42 -268 0
-40 -56 0
-56 -264 0
-56 -268 0
-40 -264 0
-40 -268 0
-264 -268 0
-113 -166 0
-113 -149 0
-111 -113 0
-31 -113 0
-97 -113 0
-149 -166 0
-111 -166 0
-31 -166 0
-97 -166 0
-111 -149 0
-31 -149 0
-97 -149 0
-31 -111 0
-97 -111 0
-31 -97 0
-79 -130 0
-79 -170 0
-57 -79 0
-14 -79 0
-79 -173 0
-12 -79 0
-79 -265 0
-79 -269 0
-130 -170 0
-57 -130 0
-14 -130 0
-130 -173 0
-12 -130 0
-130 -265 0
-130 -269 0
-57 -170 0
-14 -170 0
-170 -173 0
-12 -170 0
-170 -265 0
-170 -269 0
-14 -57 0
-57 -173 0
-12 -57 0
-57 -265 0
-57 -269 0
-14 -173 0
-12 -14 0
-14 -265 0
-14 -269 0
-12 -173 0
-173 -265 0
-173 -269 0
-12 -265 0
-12 -269 0
-265 -269 0
-78 -144 0
-78 -98 0
-78 -163 0
-3 -78 0
-78 -233 0
-2 -78 0
-78 -266 0
-78 -93 0
-98 -144 0
-144 -163 0
-3 -144 0
-144 -233 0
-2 -144 0
-144 -266 0
-93 -144 0
-98 -163 0
-3 -98 0
-98 -233 0
-2 -98 0
-98 -266 0
-93 -98 0
-3 -163 0
-163 -233 0
-2 -163 0
-163 -266 0
-93 -163 0
-3 -233 0
-2 -3 0
-3 -266 0
-3 -93 0
-2 -233 0
-233 -266 0
-93 -233 0
-2 -266 0
-2 -93 0
-93 -266 0
-152 -272 0
-154 -272 0
-152 -154 0
-270 -274 0
-270 -319 0
-270 -320 0
-274 -319 0
-274 -320 0
-319 -320 0
-140 -225 0
-84 -91 0
-91 -275 0
-91 -132 0
-91 -172 0
-91 -197 0
-86 -91 0
-91 -175 0
-50 -91 0
-84 -275 0
-84 -132 0
-84 -172 0
-84 -197 0
-84 -86 0
-84 -175 0
-50 -84 0
-132 -275 0
-172 -275 0
-197 -275 0
-86 -275 0
-175 -275 0
-50 -275 0
-132 -172 0
-132 -197 0
-86 -132 0
-132 -175 0
-50 -132 0
-172 -197 0
-86 -172 0
-172 -175 0
-50 -172 0
-86 -197 0
-175 -197 0
-50 -197 0
-86 -175 0
-50 -86 0
-50 -175 0
-100 -145 0
-43 -145 0
-145 -234 0
-43 -100 0
-100 -234 0
-43 -234 0
-30 -109 0
-29 -30 0
-29 -109 0
-271 -273 0
-271 -276 0
-148 -271 0
-271 -286 0
-179 -271 0
-9 -271 0
-271 -295 0
-8 -271 0
-273 -276 0
-148 -273 0
-273 -286 0
-179 -273 0
-9 -273 0
-273 -295 0
-8 -273 0
-148 -276 0
-276 -286 0
-179 -276 0
-9 -276 0
-276 -295 0
-8 -276 0
-148 -286 0
-148 -179 0
-9 -148 0
-148 -295 0
-8 -148 0
-179 -286 0
-9 -286 0
-286 -295 0
-8 -286 0
-9 -179 0
-179 -295 0
-8 -179 0
-9 -295 0
-8 -9 0
-8 -295 0
-277 -281 0
-201 -277 0
-206 -277 0
-277 -288 0
-221 -277 0
-161 -277 0
-277 -298 0
-277 -300 0
-201 -281 0
-206 -281 0
-281 -288 0
-221 -281 0
-161 -281 0
-281 -298 0
-281 -300 0
-201 -206 0
-201 -288 0
-201 -221 0
-161 -201 0
-201 -298 0
-201 -300 0
-206 -288 0
-206 -221 0
-161 -206 0
-206 -298 0
-206 -300 0
-221 -288 0
-161 -288 0
-288 -298 0
-288 -300 0
-161 -221 0
-221 -298 0
-221 -300 0
-161 -298 0
-161 -300 0
-298 -300 0
-278 -318 0
-278 -296 0
-249 -278 0
-296 -318 0
-249 -318 0
-249 -296 0
-279 -282 0
-128 -279 0
-168 -279 0
-238 -279 0
-242 -279 0
-128 -282 0
-168 -282 0
-238 -282 0
-242 -282 0
-128 -168 0
-128 -238 0
-128 -242 0
-168 -238 0
-168 -242 0
-238 -242 0
-44 -158 0
-44 -119 0
-44 -252 0
-119 -158 0
-158 -252 0
-119 -252 0
-280 -283 0
-123 -280 0
-280 -290 0
-123 -283 0
-283 -290 0
-123 -290 0
-167 -194 0
-11 -167 0
-146 -167 0
-95 -167 0
-167 -177 0
-106 -167 0
-167 -247 0
-167 -301 0
-11 -194 0
-146 -194 0
-95 -194 0
-177 -194 0
-106 -194 0
-194 -247 0
-194 -301 0
-11 -146 0
-11 -95 0
-11 -177 0
-11 -106 0
-11 -247 0
-11 -301 0
-95 -146 0
-146 -177 0
-106 -146 0
-146 -247 0
-146 -301 0
-95 -177 0
-95 -106 0
-95 -247 0
-95 -301 0
-106 -177 0
-177 -247 0
-177 -301 0
-106 -247 0
-106 -301 0
-247 -301 0
-1 -186 0
-186 -213 0
-186 -224 0
-1 -213 0
-1 -224 0
-213 -224 0
-199 -218 0
-199 -308 0
-218 -308 0
-65 -228 0
-228 -312 0
-180 -228 0
-228 -256 0
-228 -314 0
-65 -312 0
-65 -180 0
-65 -256 0
-65 -314 0
-180 -312 0
-256 -312 0
-312 -314 0
-180 -256 0
-180 -314 0
-256 -314 0
-52 -53 0
-53 -63 0
-51 -53 0
-53 -258 0
-53 -310 0
-52 -63 0
-51 -52 0
-52 -258 0
-52 -310 0
-51 -63 0
-63 -258 0
-63 -310 0
-51 -258 0
-51 -310 0
-258 -310 0
-39 -122 0
-38 -122 0
-122 -231 0
-122 -292 0
-37 -122 0
-38 -39 0
-39 -231 0
-39 -292 0
-37 -39 0
-38 -231 0
-38 -292 0
-37 -38 0
-231 -292 0
-37 -231 0
-37 -292 0
-192 -285 0
-210 -285 0
-285 -291 0
-60 -285 0
-10 -285 0
-285 -304 0
-285 -306 0
-263 -285 0
-192 -210 0
-192 -291 0
-60 -192 0
-10 -192 0
-192 -304 0
-192 -306 0
-192 -263 0
-210 -291 0
-60 -210 0
-10 -210 0
-210 -304 0
-210 -306 0
-210 -263 0
-60 -291 0
-10 -291 0
-291 -304 0
-291 -306 0
-263 -291 0
-10 -60 0
-60 -304 0
-60 -306 0
-60 -263 0
-10 -304 0
-10 -306 0
-10 -263 0
-304 -306 0
-263 -304 0
-263 -306 0
-155 -184 0
-184 -189 0
-135 -184 0
-184 -294 0
-27 -184 0
-155 -189 0
-135 -155 0
-155 -294 0
-27 -155 0
-135 -189 0
-189 -294 0
-27 -189 0
-135 -294 0
-27 -135 0
-27 -294 0
